(set-info :origin "SVCOMP13 benchmarks generated by Arie Gurfinkel")
(set-info :status sat)
(set-logic HORN)
(declare-fun cp-rel-bb6.i.i () Bool)
(declare-fun cp-rel-entry () Bool)
(declare-fun cp-rel-__UFO__0
             (Real Real Real Real Real Real Real Real Real Real)
             Bool)
(declare-fun cp-rel-bb.i.i.i
             (Real Real Real Real Real Real Real Real Real Real)
             Bool)
(assert |cp-rel-entry|)
(assert (forall ((?A Real) (?B Real) (?C Real) (?D Real) (?E Real) (?F Real) (?G Real) (?H Real) (?I Real) (?J Real) (?K Bool) )(let (($x288919 (= ?K true)))
(let (($x474420 (and |cp-rel-entry| (<= ?J 0.0) (>= ?I 0.0) (<= ?I 0.0) (>= ?H 0.0) (<= ?H 0.0) (>= ?G 1.0) (<= ?G 1.0) (>= ?F 1.0) (<= ?F 1.0) (>= ?E 0.0) (<= ?E 0.0) (>= ?D 0.0) (<= ?D 0.0) (>= ?C 1.0) (<= ?C 1.0) (>= ?B 1.0) (<= ?B 1.0) (>= ?A 0.0) (<= ?A 0.0) $x288919 (>= ?J 0.0))))
(=> $x474420 (|cp-rel-bb.i.i.i| ?A ?B ?C ?D ?E ?F ?G ?H ?I ?J)))))
)
(assert (forall ((?A Real) (?B Real) (?C Real) (?D Real) (?E Real) (?F Real) (?G Real) (?H Real) (?I Real) (?J Real) (?K Real) (?L Real) (?M Real) (?N Real) (?O Real) (?P Real) (?Q Real) (?R Real) (?S Real) (?T Real) (?U Bool) (?V Bool) (?W Bool) (?X Bool) (?Y Bool) (?Z Bool) (?A1 Bool) (?B1 Bool) (?C1 Bool) (?D1 Bool) (?E1 Bool) (?F1 Bool) (?G1 Bool) (?H1 Bool) (?I1 Bool) (?J1 Bool) (?K1 Bool) (?L1 Bool) (?M1 Bool) (?N1 Bool) (?O1 Bool) (?P1 Bool) (?Q1 Bool) (?R1 Bool) (?S1 Bool) (?T1 Bool) (?U1 Bool) (?V1 Bool) (?W1 Bool) (?X1 Bool) (?Y1 Bool) (?Z1 Bool) (?A2 Bool) (?B2 Bool) (?C2 Bool) (?D2 Bool) (?E2 Bool) (?F2 Bool) (?G2 Bool) (?H2 Bool) (?I2 Bool) (?J2 Bool) (?K2 Bool) (?L2 Bool) (?M2 Bool) (?N2 Real) (?O2 Bool) (?P2 Bool) (?Q2 Bool) (?R2 Bool) (?S2 Bool) (?T2 Bool) (?U2 Bool) (?V2 Bool) (?W2 Bool) (?X2 Bool) (?Y2 Bool) (?Z2 Bool) (?A3 Bool) (?B3 Real) (?C3 Bool) (?D3 Bool) (?E3 Bool) (?F3 Bool) (?G3 Bool) (?H3 Bool) (?I3 Bool) (?J3 Bool) (?K3 Bool) (?L3 Bool) (?M3 Bool) (?N3 Bool) (?O3 Bool) (?P3 Bool) (?Q3 Bool) (?R3 Bool) (?S3 Bool) (?T3 Bool) (?U3 Bool) (?V3 Bool) (?W3 Bool) (?X3 Bool) (?Y3 Bool) (?Z3 Real) (?A4 Bool) (?B4 Bool) (?C4 Bool) (?D4 Bool) (?E4 Bool) (?F4 Bool) (?G4 Bool) (?H4 Bool) (?I4 Bool) (?J4 Bool) (?K4 Bool) (?L4 Bool) (?M4 Bool) (?N4 Bool) (?O4 Bool) (?P4 Bool) (?Q4 Bool) (?R4 Bool) (?S4 Bool) (?T4 Bool) (?U4 Bool) (?V4 Bool) (?W4 Bool) (?X4 Bool) (?Y4 Bool) (?Z4 Bool) (?A5 Bool) (?B5 Bool) (?C5 Bool) (?D5 Bool) (?E5 Bool) (?F5 Bool) (?G5 Bool) (?H5 Bool) (?I5 Bool) (?J5 Bool) (?K5 Bool) (?L5 Bool) (?M5 Bool) (?N5 Bool) (?O5 Bool) (?P5 Bool) (?Q5 Bool) (?R5 Bool) (?S5 Bool) (?T5 Bool) (?U5 Bool) (?V5 Bool) (?W5 Bool) (?X5 Bool) (?Y5 Bool) (?Z5 Bool) (?A6 Bool) (?B6 Bool) (?C6 Bool) (?D6 Bool) (?E6 Bool) (?F6 Bool) (?G6 Bool) (?H6 Bool) (?I6 Bool) (?J6 Bool) (?K6 Bool) (?L6 Bool) (?M6 Bool) (?N6 Bool) (?O6 Real) (?P6 Bool) (?Q6 Bool) (?R6 Bool) (?S6 Bool) (?T6 Bool) (?U6 Bool) (?V6 Bool) (?W6 Bool) (?X6 Bool) (?Y6 Bool) (?Z6 Bool) (?A7 Bool) (?B7 Bool) (?C7 Bool) (?D7 Bool) (?E7 Bool) (?F7 Bool) (?G7 Bool) (?H7 Bool) (?I7 Bool) (?J7 Bool) (?K7 Bool) (?L7 Bool) (?M7 Bool) (?N7 Bool) (?O7 Bool) (?P7 Bool) (?Q7 Bool) (?R7 Bool) (?S7 Bool) (?T7 Bool) (?U7 Real) (?V7 Real) (?W7 Real) (?X7 Real) (?Y7 Real) (?Z7 Real) (?A8 Real) (?B8 Real) (?C8 Real) (?D8 Bool) (?E8 Real) (?F8 Real) (?G8 Bool) (?H8 Bool) (?I8 Bool) (?J8 Bool) (?K8 Bool) (?L8 Bool) (?M8 Bool) (?N8 Bool) (?O8 Bool) (?P8 Bool) (?Q8 Bool) (?R8 Bool) (?S8 Bool) (?T8 Bool) (?U8 Bool) (?V8 Bool) (?W8 Bool) (?X8 Bool) (?Y8 Bool) (?Z8 Bool) (?A9 Bool) (?B9 Bool) (?C9 Bool) (?D9 Bool) (?E9 Bool) (?F9 Bool) (?G9 Bool) (?H9 Bool) (?I9 Bool) (?J9 Bool) (?K9 Bool) (?L9 Bool) (?M9 Bool) (?N9 Bool) (?O9 Bool) (?P9 Bool) (?Q9 Bool) (?R9 Bool) (?S9 Bool) (?T9 Bool) (?U9 Bool) (?V9 Bool) (?W9 Bool) (?X9 Bool) (?Y9 Bool) (?Z9 Bool) (?A10 Bool) (?B10 Bool) (?C10 Bool) (?D10 Bool) (?E10 Bool) (?F10 Bool) (?G10 Bool) (?H10 Bool) (?I10 Bool) (?J10 Bool) (?K10 Bool) (?L10 Bool) (?M10 Bool) (?N10 Bool) (?O10 Bool) (?P10 Bool) (?Q10 Bool) (?R10 Bool) (?S10 Bool) (?T10 Bool) (?U10 Bool) (?V10 Bool) (?W10 Bool) (?X10 Bool) (?Y10 Bool) (?Z10 Bool) (?A11 Bool) (?B11 Bool) (?C11 Real) (?D11 Bool) (?E11 Bool) (?F11 Bool) (?G11 Bool) (?H11 Bool) (?I11 Bool) (?J11 Bool) (?K11 Bool) (?L11 Bool) (?M11 Bool) (?N11 Bool) (?O11 Bool) (?P11 Bool) (?Q11 Bool) (?R11 Bool) (?S11 Bool) (?T11 Bool) (?U11 Bool) (?V11 Bool) (?W11 Bool) (?X11 Bool) (?Y11 Bool) (?Z11 Bool) (?A12 Bool) (?B12 Bool) (?C12 Bool) (?D12 Bool) (?E12 Bool) (?F12 Bool) (?G12 Bool) (?H12 Bool) (?I12 Bool) (?J12 Bool) (?K12 Bool) (?L12 Bool) (?M12 Bool) (?N12 Bool) (?O12 Bool) (?P12 Bool) (?Q12 Bool) (?R12 Bool) (?S12 Bool) (?T12 Bool) (?U12 Bool) (?V12 Bool) (?W12 Bool) (?X12 Bool) (?Y12 Bool) (?Z12 Bool) (?A13 Bool) (?B13 Bool) (?C13 Bool) (?D13 Bool) (?E13 Bool) (?F13 Bool) (?G13 Bool) (?H13 Bool) (?I13 Bool) (?J13 Bool) (?K13 Bool) (?L13 Bool) (?M13 Bool) (?N13 Bool) (?O13 Bool) (?P13 Bool) (?Q13 Bool) (?R13 Bool) (?S13 Bool) (?T13 Bool) (?U13 Bool) (?V13 Bool) (?W13 Bool) (?X13 Bool) (?Y13 Bool) (?Z13 Bool) (?A14 Bool) (?B14 Real) (?C14 Bool) (?D14 Bool) (?E14 Bool) (?F14 Bool) (?G14 Bool) (?H14 Real) (?I14 Bool) (?J14 Real) (?K14 Bool) (?L14 Bool) (?M14 Bool) (?N14 Bool) (?O14 Real) (?P14 Real) (?Q14 Real) (?R14 Real) (?S14 Real) (?T14 Real) (?U14 Real) (?V14 Real) (?W14 Real) (?X14 Real) (?Y14 Real) (?Z14 Bool) (?A15 Real) (?B15 Bool) (?C15 Real) (?D15 Bool) (?E15 Real) (?F15 Bool) (?G15 Real) (?H15 Real) (?I15 Bool) (?J15 Real) (?K15 Bool) (?L15 Bool) (?M15 Bool) (?N15 Real) (?O15 Bool) (?P15 Real) (?Q15 Bool) (?R15 Bool) (?S15 Bool) (?T15 Bool) (?U15 Bool) (?V15 Bool) (?W15 Bool) (?X15 Bool) (?Y15 Bool) (?Z15 Bool) (?A16 Bool) (?B16 Bool) (?C16 Bool) (?D16 Bool) (?E16 Bool) (?F16 Bool) (?G16 Real) (?H16 Bool) (?I16 Bool) (?J16 Bool) (?K16 Bool) (?L16 Bool) (?M16 Bool) (?N16 Bool) (?O16 Bool) (?P16 Bool) (?Q16 Real) (?R16 Bool) (?S16 Real) (?T16 Bool) (?U16 Bool) (?V16 Bool) (?W16 Bool) (?X16 Bool) )(let (($x437157 (or (not ?K2) (and ?L1 ?L2 (not ?M2) (<= ?N2 0.0) (>= ?N2 0.0)) (and ?V1 ?O2 ?P2 (<= ?N2 ?I) (>= ?N2 ?I)) (and ?Y1 ?Q2 ?R2 (<= ?N2 0.0) (>= ?N2 0.0)) (and ?B1 ?S2 ?I1 (<= ?N2 0.0) (>= ?N2 0.0)))))
(let (($x379253 (or (not ?K2) (and ?L2 (not ?O2) (not ?Q2) (not ?S2)) (and ?O2 (not ?L2) (not ?Q2) (not ?S2)) (and ?Q2 (not ?L2) (not ?O2) (not ?S2)) (and ?S2 (not ?L2) (not ?O2) (not ?Q2)))))
(let (($x350619 (or (not ?Y2) (and ?D2 ?Z2 ?A3 (<= ?B3 ?B) (>= ?B3 ?B)) (and ?F2 ?C3 ?D3 (<= ?B3 0.0) (>= ?B3 0.0)) (and ?T2 ?E3 ?F3 (<= ?B3 0.0) (>= ?B3 0.0)) (and ?W2 ?G3 ?H3 (<= ?B3 0.0) (>= ?B3 0.0)) (and ?E1 ?I3 ?I1 (<= ?B3 0.0) (>= ?B3 0.0)))))
(let (($x156212 (or (not ?Y2) (and ?Z2 (not ?C3) (not ?E3) (not ?G3) (not ?I3)) (and ?C3 (not ?Z2) (not ?E3) (not ?G3) (not ?I3)) (and ?E3 (not ?Z2) (not ?C3) (not ?G3) (not ?I3)) (and ?G3 (not ?Z2) (not ?C3) (not ?E3) (not ?I3)) (and ?I3 (not ?Z2) (not ?C3) (not ?E3) (not ?G3)))))
(let (($x136213 (or (not ?W3) (and ?M3 ?X3 (not ?Y3) (<= ?Z3 0.0) (>= ?Z3 0.0)) (and ?R3 ?A4 ?B4 (<= ?Z3 ?I) (>= ?Z3 ?I)) (and ?U3 ?C4 ?D4 (<= ?Z3 0.0) (>= ?Z3 0.0)) (and ?A2 ?E4 ?F4 (<= ?Z3 0.0) (>= ?Z3 0.0)))))
(let (($x443626 (or (not ?W3) (and ?X3 (not ?A4) (not ?C4) (not ?E4)) (and ?A4 (not ?X3) (not ?C4) (not ?E4)) (and ?C4 (not ?X3) (not ?A4) (not ?E4)) (and ?E4 (not ?X3) (not ?A4) (not ?C4)))))
(let (($x439853 (or (not ?G4) (and ?W3 ?H4 ?I4) (and ?M3 ?J4 ?Y3) (and ?R3 ?K4 (not ?B4)) (and ?U3 ?L4 (not ?D4)) (and ?A2 ?M4 (not ?F4)) (and ?D2 ?N4 (not ?A3)) (and ?F2 ?O4 (not ?D3)) (and ?T2 ?P4 (not ?F3)) (and ?W2 ?Q4 (not ?H3)) (and ?K2 ?R4 (not ?S4)) (and ?L1 ?T4 ?M2) (and ?V1 ?U4 (not ?P2)) (and ?Y1 ?V4 (not ?R2)))))
(let (($x108509 (not ?U4)))
(let (($x314857 (not ?T4)))
(let (($x112610 (not ?R4)))
(let (($x109384 (not ?Q4)))
(let (($x320410 (not ?P4)))
(let (($x422198 (not ?O4)))
(let (($x381202 (not ?N4)))
(let (($x435257 (not ?M4)))
(let (($x202005 (not ?L4)))
(let (($x238142 (not ?K4)))
(let (($x362236 (not ?J4)))
(let (($x233939 (not ?H4)))
(let (($x164748 (and ?V4 $x233939 $x362236 $x238142 $x202005 $x435257 $x381202 $x422198 $x320410 $x109384 $x112610 $x314857 $x108509)))
(let (($x445454 (not ?V4)))
(let (($x271348 (and ?U4 $x233939 $x362236 $x238142 $x202005 $x435257 $x381202 $x422198 $x320410 $x109384 $x112610 $x314857 $x445454)))
(let (($x97967 (and ?T4 $x233939 $x362236 $x238142 $x202005 $x435257 $x381202 $x422198 $x320410 $x109384 $x112610 $x108509 $x445454)))
(let (($x413520 (and ?R4 $x233939 $x362236 $x238142 $x202005 $x435257 $x381202 $x422198 $x320410 $x109384 $x314857 $x108509 $x445454)))
(let (($x281409 (and ?Q4 $x233939 $x362236 $x238142 $x202005 $x435257 $x381202 $x422198 $x320410 $x112610 $x314857 $x108509 $x445454)))
(let (($x401833 (and ?P4 $x233939 $x362236 $x238142 $x202005 $x435257 $x381202 $x422198 $x109384 $x112610 $x314857 $x108509 $x445454)))
(let (($x306319 (and ?O4 $x233939 $x362236 $x238142 $x202005 $x435257 $x381202 $x320410 $x109384 $x112610 $x314857 $x108509 $x445454)))
(let (($x97953 (and ?N4 $x233939 $x362236 $x238142 $x202005 $x435257 $x422198 $x320410 $x109384 $x112610 $x314857 $x108509 $x445454)))
(let (($x358347 (and ?M4 $x233939 $x362236 $x238142 $x202005 $x381202 $x422198 $x320410 $x109384 $x112610 $x314857 $x108509 $x445454)))
(let (($x122877 (and ?L4 $x233939 $x362236 $x238142 $x435257 $x381202 $x422198 $x320410 $x109384 $x112610 $x314857 $x108509 $x445454)))
(let (($x386354 (and ?K4 $x233939 $x362236 $x202005 $x435257 $x381202 $x422198 $x320410 $x109384 $x112610 $x314857 $x108509 $x445454)))
(let (($x292733 (and ?J4 $x233939 $x238142 $x202005 $x435257 $x381202 $x422198 $x320410 $x109384 $x112610 $x314857 $x108509 $x445454)))
(let (($x113301 (and ?H4 $x362236 $x238142 $x202005 $x435257 $x381202 $x422198 $x320410 $x109384 $x112610 $x314857 $x108509 $x445454)))
(let (($x245245 (or (not ?G4) $x113301 $x292733 $x386354 $x122877 $x358347 $x97953 $x306319 $x401833 $x281409 $x413520 $x97967 $x271348 $x164748)))
(let (($x212630 (or (not ?W4) (and ?W3 ?X4 (not ?I4)) (and ?Y2 ?Y4 (not ?L3)) (and ?K2 ?Z4 ?S4))))
(let (($x183983 (or (not ?W4) (and ?X4 (not ?Y4) (not ?Z4)) (and ?Y4 (not ?X4) (not ?Z4)) (and ?Z4 (not ?X4) (not ?Y4)))))
(let (($x372093 (or (not ?L6) (and ?E5 ?M6 ?N6 (<= ?O6 0.0) (>= ?O6 0.0)) (and ?T5 ?P6 ?Q6 (<= ?O6 ?C) (>= ?O6 ?C)) (and ?W5 ?R6 (not ?S6) (<= ?O6 0.0) (>= ?O6 0.0)))))
(let (($x397795 (or (not ?L6) (and ?M6 (not ?P6) (not ?R6)) (and ?P6 (not ?M6) (not ?R6)) (and ?R6 (not ?M6) (not ?P6)))))
(let (($x372675 (>= ?C8 ?F8)))
(let (($x362039 (<= ?C8 ?F8)))
(let (($x273110 (>= ?B8 ?I)))
(let (($x101052 (<= ?B8 ?I)))
(let (($x356568 (>= ?A8 ?E)))
(let (($x224736 (<= ?A8 ?E)))
(let (($x299150 (>= ?Y7 ?E8)))
(let (($x382794 (<= ?Y7 ?E8)))
(let (($x460911 (>= ?W7 ?C)))
(let (($x445942 (<= ?W7 ?C)))
(let (($x286997 (>= ?U7 ?B)))
(let (($x268852 (<= ?U7 ?B)))
(let (($x107184 (and ?W5 ?I8 ?S6 $x268852 $x286997 $x445942 $x460911 $x382794 $x299150 $x224736 $x356568 $x101052 $x273110 $x362039 $x372675)))
(let (($x126510 (and ?T5 ?H8 (not ?Q6) $x268852 $x286997 $x445942 $x460911 $x382794 $x299150 $x224736 $x356568 $x101052 $x273110 $x362039 $x372675)))
(let (($x187875 (and ?E5 ?G8 (not ?N6) $x268852 $x286997 $x445942 $x460911 $x382794 $x299150 $x224736 $x356568 $x101052 $x273110 $x362039 $x372675)))
(let (($x349823 (and ?L6 ?D8 ?L7 $x268852 $x286997 $x445942 $x460911 $x382794 $x299150 $x224736 $x356568 $x101052 $x273110 $x362039 $x372675)))
(let (($x405629 (and ?J7 ?T7 (<= ?U7 ?V7) (>= ?U7 ?V7) (<= ?W7 ?X7) (>= ?W7 ?X7) (<= ?Y7 ?Z7) (>= ?Y7 ?Z7) (<= ?A8 1.0) (>= ?A8 1.0) (<= ?B8 1.0) (>= ?B8 1.0) (<= ?C8 1.0) (>= ?C8 1.0))))
(let (($x177286 (or (not ?S7) (and ?T7 (not ?D8) (not ?G8) (not ?H8) (not ?I8)) (and ?D8 (not ?T7) (not ?G8) (not ?H8) (not ?I8)) (and ?G8 (not ?T7) (not ?D8) (not ?H8) (not ?I8)) (and ?H8 (not ?T7) (not ?D8) (not ?G8) (not ?I8)) (and ?I8 (not ?T7) (not ?D8) (not ?G8) (not ?H8)))))
(let (($x374149 (or (not ?J8) (and ?G7 ?K8 ?L8) (and ?R5 ?M8 ?I1) (and ?D7 ?N8 ?O8) (and ?O5 ?P8 ?I6) (and ?P7 ?Q8 ?R8) (and ?A6 ?S8 ?I1) (and ?M7 ?T8 ?U8) (and ?Y5 ?V8 ?V6) (and ?B7 ?W8 ?X8) (and ?E6 ?Y8 ?I1) (and ?Y6 ?Z8 ?A9) (and ?C6 ?B9 ?A7))))
(let (($x171708 (not ?Z8)))
(let (($x265996 (not ?Y8)))
(let (($x273518 (not ?W8)))
(let (($x399201 (not ?V8)))
(let (($x256006 (not ?T8)))
(let (($x371708 (not ?S8)))
(let (($x275241 (not ?Q8)))
(let (($x292980 (not ?P8)))
(let (($x157905 (not ?N8)))
(let (($x99054 (not ?M8)))
(let (($x276032 (not ?K8)))
(let (($x471182 (not ?B9)))
(let (($x282902 (or (not ?J8) (and ?K8 $x99054 $x157905 $x292980 $x275241 $x371708 $x256006 $x399201 $x273518 $x265996 $x171708 $x471182) (and ?M8 $x276032 $x157905 $x292980 $x275241 $x371708 $x256006 $x399201 $x273518 $x265996 $x171708 $x471182) (and ?N8 $x276032 $x99054 $x292980 $x275241 $x371708 $x256006 $x399201 $x273518 $x265996 $x171708 $x471182) (and ?P8 $x276032 $x99054 $x157905 $x275241 $x371708 $x256006 $x399201 $x273518 $x265996 $x171708 $x471182) (and ?Q8 $x276032 $x99054 $x157905 $x292980 $x371708 $x256006 $x399201 $x273518 $x265996 $x171708 $x471182) (and ?S8 $x276032 $x99054 $x157905 $x292980 $x275241 $x256006 $x399201 $x273518 $x265996 $x171708 $x471182) (and ?T8 $x276032 $x99054 $x157905 $x292980 $x275241 $x371708 $x399201 $x273518 $x265996 $x171708 $x471182) (and ?V8 $x276032 $x99054 $x157905 $x292980 $x275241 $x371708 $x256006 $x273518 $x265996 $x171708 $x471182) (and ?W8 $x276032 $x99054 $x157905 $x292980 $x275241 $x371708 $x256006 $x399201 $x265996 $x171708 $x471182) (and ?Y8 $x276032 $x99054 $x157905 $x292980 $x275241 $x371708 $x256006 $x399201 $x273518 $x171708 $x471182) (and ?Z8 $x276032 $x99054 $x157905 $x292980 $x275241 $x371708 $x256006 $x399201 $x273518 $x265996 $x471182) (and ?B9 $x276032 $x99054 $x157905 $x292980 $x275241 $x371708 $x256006 $x399201 $x273518 $x265996 $x171708))))
(let (($x422620 (or (not ?C9) (and ?G7 ?D9 (not ?L8)) (and ?J6 ?E9 (not ?I7)) (and ?D7 ?F9 (not ?O8)) (and ?G6 ?G9 (not ?F7)) (and ?P7 ?H9 (not ?R8)) (and ?W6 ?I9 (not ?R7)) (and ?M7 ?J9 (not ?U8)) (and ?T6 ?K9 (not ?O7)) (and ?B7 ?L9 (not ?X8)) (and ?Y6 ?M9 (not ?A9)))))
(let (($x114190 (not ?L9)))
(let (($x386100 (not ?K9)))
(let (($x99061 (not ?J9)))
(let (($x304005 (not ?I9)))
(let (($x324750 (not ?H9)))
(let (($x399413 (not ?G9)))
(let (($x172572 (not ?F9)))
(let (($x215728 (not ?E9)))
(let (($x185843 (not ?D9)))
(let (($x367975 (or (not ?C9) (and ?D9 $x215728 $x172572 $x399413 $x324750 $x304005 $x99061 $x386100 $x114190 (not ?M9)) (and ?E9 $x185843 $x172572 $x399413 $x324750 $x304005 $x99061 $x386100 $x114190 (not ?M9)) (and ?F9 $x185843 $x215728 $x399413 $x324750 $x304005 $x99061 $x386100 $x114190 (not ?M9)) (and ?G9 $x185843 $x215728 $x172572 $x324750 $x304005 $x99061 $x386100 $x114190 (not ?M9)) (and ?H9 $x185843 $x215728 $x172572 $x399413 $x304005 $x99061 $x386100 $x114190 (not ?M9)) (and ?I9 $x185843 $x215728 $x172572 $x399413 $x324750 $x99061 $x386100 $x114190 (not ?M9)) (and ?J9 $x185843 $x215728 $x172572 $x399413 $x324750 $x304005 $x386100 $x114190 (not ?M9)) (and ?K9 $x185843 $x215728 $x172572 $x399413 $x324750 $x304005 $x99061 $x114190 (not ?M9)) (and ?L9 $x185843 $x215728 $x172572 $x399413 $x324750 $x304005 $x99061 $x386100 (not ?M9)) (and ?M9 $x185843 $x215728 $x172572 $x399413 $x324750 $x304005 $x99061 $x386100 $x114190))))
(let (($x285844 (or (not ?A11) (and ?L10 ?B11 (<= ?C11 1.0) (>= ?C11 1.0)) (and ?X9 ?D11 (not ?I1) (<= ?C11 ?F) (>= ?C11 ?F)) (and ?I10 ?E11 (<= ?C11 0.0) (>= ?C11 0.0)) (and ?U9 ?F11 (not ?K10) (<= ?C11 ?F) (>= ?C11 ?F)))))
(let (($x213289 (or (not ?A11) (and ?B11 (not ?D11) (not ?E11) (not ?F11)) (and ?D11 (not ?B11) (not ?E11) (not ?F11)) (and ?E11 (not ?B11) (not ?D11) (not ?F11)) (and ?F11 (not ?B11) (not ?D11) (not ?E11)))))
(let (($x365254 (or (not ?C12) (and ?T11 ?D12 ?E12) (and ?G10 ?F12 ?I1) (and ?Q11 ?G12 ?H12) (and ?D10 ?I12 ?X10) (and ?Z11 ?J12 ?K12) (and ?P10 ?L12 ?I1) (and ?W11 ?M12 ?N12) (and ?N10 ?O12 ?I11) (and ?O11 ?P12 ?Q12) (and ?T10 ?R12 ?I1) (and ?L11 ?S12 ?T12) (and ?R10 ?U12 ?N11))))
(let (($x441815 (not ?S12)))
(let (($x244494 (not ?R12)))
(let (($x301086 (not ?P12)))
(let (($x266166 (not ?O12)))
(let (($x377193 (not ?M12)))
(let (($x489966 (not ?L12)))
(let (($x481216 (not ?J12)))
(let (($x467567 (not ?I12)))
(let (($x430383 (not ?G12)))
(let (($x376916 (not ?F12)))
(let (($x118823 (not ?D12)))
(let (($x334920 (not ?U12)))
(let (($x392203 (or (not ?C12) (and ?D12 $x376916 $x430383 $x467567 $x481216 $x489966 $x377193 $x266166 $x301086 $x244494 $x441815 $x334920) (and ?F12 $x118823 $x430383 $x467567 $x481216 $x489966 $x377193 $x266166 $x301086 $x244494 $x441815 $x334920) (and ?G12 $x118823 $x376916 $x467567 $x481216 $x489966 $x377193 $x266166 $x301086 $x244494 $x441815 $x334920) (and ?I12 $x118823 $x376916 $x430383 $x481216 $x489966 $x377193 $x266166 $x301086 $x244494 $x441815 $x334920) (and ?J12 $x118823 $x376916 $x430383 $x467567 $x489966 $x377193 $x266166 $x301086 $x244494 $x441815 $x334920) (and ?L12 $x118823 $x376916 $x430383 $x467567 $x481216 $x377193 $x266166 $x301086 $x244494 $x441815 $x334920) (and ?M12 $x118823 $x376916 $x430383 $x467567 $x481216 $x489966 $x266166 $x301086 $x244494 $x441815 $x334920) (and ?O12 $x118823 $x376916 $x430383 $x467567 $x481216 $x489966 $x377193 $x301086 $x244494 $x441815 $x334920) (and ?P12 $x118823 $x376916 $x430383 $x467567 $x481216 $x489966 $x377193 $x266166 $x244494 $x441815 $x334920) (and ?R12 $x118823 $x376916 $x430383 $x467567 $x481216 $x489966 $x377193 $x266166 $x301086 $x441815 $x334920) (and ?S12 $x118823 $x376916 $x430383 $x467567 $x481216 $x489966 $x377193 $x266166 $x301086 $x244494 $x334920) (and ?U12 $x118823 $x376916 $x430383 $x467567 $x481216 $x489966 $x377193 $x266166 $x301086 $x244494 $x441815))))
(let (($x236201 (or (not ?V12) (and ?T11 ?W12 (not ?E12)) (and ?Y10 ?X12 (not ?V11)) (and ?Q11 ?Y12 (not ?H12)) (and ?V10 ?Z12 (not ?S11)) (and ?Z11 ?A13 (not ?K12)) (and ?J11 ?B13 (not ?B12)) (and ?W11 ?C13 (not ?N12)) (and ?G11 ?D13 (not ?Y11)) (and ?O11 ?E13 (not ?Q12)) (and ?L11 ?F13 (not ?T12)))))
(let (($x352451 (not ?E13)))
(let (($x105372 (not ?D13)))
(let (($x277427 (not ?C13)))
(let (($x394832 (not ?B13)))
(let (($x202910 (not ?A13)))
(let (($x251993 (not ?Z12)))
(let (($x267677 (not ?Y12)))
(let (($x211765 (not ?X12)))
(let (($x433998 (not ?W12)))
(let (($x391648 (or (not ?V12) (and ?W12 $x211765 $x267677 $x251993 $x202910 $x394832 $x277427 $x105372 $x352451 (not ?F13)) (and ?X12 $x433998 $x267677 $x251993 $x202910 $x394832 $x277427 $x105372 $x352451 (not ?F13)) (and ?Y12 $x433998 $x211765 $x251993 $x202910 $x394832 $x277427 $x105372 $x352451 (not ?F13)) (and ?Z12 $x433998 $x211765 $x267677 $x202910 $x394832 $x277427 $x105372 $x352451 (not ?F13)) (and ?A13 $x433998 $x211765 $x267677 $x251993 $x394832 $x277427 $x105372 $x352451 (not ?F13)) (and ?B13 $x433998 $x211765 $x267677 $x251993 $x202910 $x277427 $x105372 $x352451 (not ?F13)) (and ?C13 $x433998 $x211765 $x267677 $x251993 $x202910 $x394832 $x105372 $x352451 (not ?F13)) (and ?D13 $x433998 $x211765 $x267677 $x251993 $x202910 $x394832 $x277427 $x352451 (not ?F13)) (and ?E13 $x433998 $x211765 $x267677 $x251993 $x202910 $x394832 $x277427 $x105372 (not ?F13)) (and ?F13 $x433998 $x211765 $x267677 $x251993 $x202910 $x394832 $x277427 $x105372 $x352451))))
(let (($x341439 (or (not ?Z13) (and ?S13 ?A14 (<= ?B14 1.0) (>= ?B14 1.0)) (and ?J13 ?C14 (not ?I1) (<= ?B14 ?F) (>= ?B14 ?F)) (and ?P13 ?D14 (<= ?B14 0.0) (>= ?B14 0.0)) (and ?G13 ?E14 (not ?R13) (<= ?B14 ?F) (>= ?B14 ?F)))))
(let (($x310568 (or (not ?Z13) (and ?A14 (not ?C14) (not ?D14) (not ?E14)) (and ?C14 (not ?A14) (not ?D14) (not ?E14)) (and ?D14 (not ?A14) (not ?C14) (not ?E14)) (and ?E14 (not ?A14) (not ?C14) (not ?D14)))))
(let (($x110206 (or (not ?F14) (and ?X13 ?G14 (<= ?H14 1.0) (>= ?H14 1.0)) (and ?N13 ?I14 (not ?I1) (<= ?H14 ?J14) (>= ?H14 ?J14)) (and ?U13 ?K14 (<= ?H14 0.0) (>= ?H14 0.0)) (and ?L13 ?L14 (not ?W13) (<= ?H14 ?J14) (>= ?H14 ?J14)))))
(let (($x408136 (or (not ?F14) (and ?G14 (not ?I14) (not ?K14) (not ?L14)) (and ?I14 (not ?G14) (not ?K14) (not ?L14)) (and ?K14 (not ?G14) (not ?I14) (not ?L14)) (and ?L14 (not ?G14) (not ?I14) (not ?K14)))))
(let (($x288002 (and ?S7 ?F15 (not ?P9) (<= ?O14 ?E15) (>= ?O14 ?E15) (<= ?P14 ?W7) (>= ?P14 ?W7) (<= ?Q14 ?Y7) (>= ?Q14 ?Y7) (<= ?R14 ?A8) (>= ?R14 ?A8) (<= ?S14 ?F) (>= ?S14 ?F) (<= ?T14 ?G) (>= ?T14 ?G) (<= ?V14 1.0) (>= ?V14 1.0) (<= ?X14 ?B8) (>= ?X14 ?B8) (<= ?Y14 ?C8) (>= ?Y14 ?C8))))
(let (($x322650 (and ?N9 ?D15 (<= ?O14 ?E15) (>= ?O14 ?E15) (<= ?P14 ?W7) (>= ?P14 ?W7) (<= ?Q14 ?Y7) (>= ?Q14 ?Y7) (<= ?R14 ?A8) (>= ?R14 ?A8) (<= ?S14 ?F) (>= ?S14 ?F) (<= ?T14 ?G) (>= ?T14 ?G) (<= ?V14 1.0) (>= ?V14 1.0) (<= ?X14 0.0) (>= ?X14 0.0) (<= ?Y14 ?C8) (>= ?Y14 ?C8))))
(let (($x478805 (>= ?Y14 ?J)))
(let (($x259358 (<= ?Y14 ?J)))
(let (($x274214 (>= ?X14 ?I)))
(let (($x281430 (<= ?X14 ?I)))
(let (($x274519 (>= ?V14 ?W14)))
(let (($x241301 (<= ?V14 ?W14)))
(let (($x469095 (>= ?R14 ?E)))
(let (($x250548 (<= ?R14 ?E)))
(let (($x382622 (>= ?Q14 ?D)))
(let (($x481255 (<= ?Q14 ?D)))
(let (($x296541 (>= ?P14 ?C)))
(let (($x159522 (<= ?P14 ?C)))
(let (($x283477 (>= ?O14 ?B)))
(let (($x138930 (<= ?O14 ?B)))
(let (($x347214 (and ?A11 ?B15 $x138930 $x283477 $x159522 $x296541 $x481255 $x382622 $x250548 $x469095 (<= ?S14 ?C11) (>= ?S14 ?C11) (<= ?T14 ?C15) (>= ?T14 ?C15) $x241301 $x274519 $x281430 $x274214 $x259358 $x478805)))
(let (($x211570 (and ?F14 ?Z14 $x138930 $x283477 $x159522 $x296541 $x481255 $x382622 $x250548 $x469095 (<= ?S14 ?H14) (>= ?S14 ?H14) (<= ?T14 ?A15) (>= ?T14 ?A15) $x241301 $x274519 $x281430 $x274214 $x259358 $x478805)))
(let (($x472153 (and ?Z13 ?N14 $x138930 $x283477 $x159522 $x296541 $x481255 $x382622 $x250548 $x469095 (<= ?S14 ?B14) (>= ?S14 ?B14) (<= ?T14 ?U14) (>= ?T14 ?U14) $x241301 $x274519 $x281430 $x274214 $x259358 $x478805)))
(let (($x197045 (or (not ?M14) (and ?N14 (not ?Z14) (not ?B15) (not ?D15) (not ?F15)) (and ?Z14 (not ?N14) (not ?B15) (not ?D15) (not ?F15)) (and ?B15 (not ?N14) (not ?Z14) (not ?D15) (not ?F15)) (and ?D15 (not ?N14) (not ?Z14) (not ?B15) (not ?F15)) (and ?F15 (not ?N14) (not ?Z14) (not ?B15) (not ?D15)))))
(let (($x210096 (and (|cp-rel-bb.i.i.i| ?A ?B ?C ?D ?E ?F ?G ?H ?I ?J) (= ?H15 (ite ?X16 ?R14 0.0)) (= ?X16 (or ?W16 ?T16)) (= ?W16 (or ?U16 ?V16)) (= ?V16 (= ?R14 0.0)) (= ?U16 (not (= ?T14 3.0))) (= ?T16 (= ?V14 0.0)) (= ?A15 (+ ?S16 ?G)) (= ?S16 (ite ?R16 1.0 (~ 1.0))) (= ?R16 (= ?H14 1.0)) (= ?U14 (+ ?Q16 ?G)) (= ?Q16 (ite ?P16 1.0 (~ 1.0))) (= ?P16 (= ?B14 1.0)) (= ?W13 (= ?G 4.0)) (= ?R13 (= ?G 4.0)) (= ?J14 (ite ?F10 1.0 0.0)) (= ?I13 (= ?F 1.0)) (= ?K12 (or ?L5 ?O16)) (= ?O16 (not (<= 4.0 ?G))) (= ?N12 (or ?L5 ?N16)) (= ?N16 (not (<= ?G 2.0))) (= ?E12 (or ?L5 ?M16)) (= ?M16 (not (<= 4.0 ?G))) (= ?H12 (or ?L5 ?L16)) (= ?L16 (not (<= ?G 2.0))) (= ?Q12 (or ?L5 ?K16)) (= ?K16 (not (<= 4.0 ?G))) (= ?T12 (or ?L5 ?J16)) (= ?J16 (not (<= ?G 2.0))) (= ?B12 (or ?I16 ?I15)) (= ?I16 (not (<= 2.0 ?G))) (= ?Y11 (or ?H16 ?I15)) (= ?H16 (not (<= ?G 0.0))) (= ?C15 (+ ?G16 ?G)) (= ?G16 (ite ?F16 1.0 (~ 1.0))) (= ?F16 (= ?C11 1.0)) (= ?V11 (or ?E16 ?I15)) (= ?E16 (not (<= 2.0 ?G))) (= ?S11 (or ?D16 ?I15)) (= ?D16 (not (<= ?G 0.0))) (= ?N11 (= ?G 4.0)) (= ?I11 (= ?G 4.0)) (= ?X10 (= ?G 4.0)) (= ?K10 (= ?G 4.0)) (= ?W9 (= ?F 1.0)) (= ?F10 (= ?F 0.0)) (= ?P9 (= ?G 3.0)) (= ?E15 (ite ?C16 0.0 ?U7)) (= ?C16 (= ?G 1.0)) (= ?R8 (or ?L5 ?B16)) (= ?B16 (not (<= 4.0 ?G))) (= ?U8 (or ?L5 ?A16)) (= ?A16 (not (<= ?G 2.0))) (= ?Z7 (+ 150.0 ?E8)) (= ?V7 (ite ?Z15 0.0 ?B)) (= ?Z15 (= ?G 1.0)) (= ?X7 (ite ?Y15 0.0 ?C)) (= ?Y15 (= ?G 1.0)) (= ?L8 (or ?L5 ?X15)) (= ?X15 (not (<= 4.0 ?G))) (= ?O8 (or ?L5 ?W15)) (= ?W15 (not (<= ?G 2.0))) (= ?X8 (or ?L5 ?V15)) (= ?V15 (not (<= 4.0 ?G))) (= ?A9 (or ?L5 ?U15)) (= ?U15 (not (<= ?G 2.0))) (= ?R7 (or ?T15 ?I15)) (= ?T15 (not (<= 2.0 ?G))) (= ?O7 (or ?S15 ?I15)) (= ?S15 (not (<= ?G 0.0))) (= ?L7 (= ?O6 0.0)) (= ?I7 (or ?R15 ?I15)) (= ?R15 (not (<= 2.0 ?G))) (= ?F7 (or ?Q15 ?I15)) (= ?Q15 (not (<= ?G 0.0))) (= ?A7 (= ?G 4.0)) (= ?V6 (= ?G 4.0)) (= ?S6 (not (<= ?P15 2.0))) (= ?P15 (+ (~ 2.0) ?G)) (= ?Q6 (= ?G 1.0)) (= ?I6 (= ?G 4.0)) (= ?V5 (not (<= 2.0 ?G))) (= ?N6 (= ?G 0.0)) (= ?G5 (not (<= 1.0 ?G))) (= ?F8 (ite ?O15 0.0 ?J)) (= ?E8 (ite ?O15 ?N15 ?D)) (= ?O15 (and ?M15 ?L15)) (= ?N15 (+ (~ 150.0) ?D)) (= ?M15 (not (= ?J 0.0))) (= ?L15 (= ?G 3.0)) (= ?Q5 (= ?F 1.0)) (= ?W14 (ite ?K15 0.0 ?H)) (= ?K15 (= ?H 1.0)) (= ?I4 (= ?Z3 0.0)) (= ?D4 (= ?G 4.0)) (= ?B4 (= ?G 3.0)) (= ?T3 (not (<= 4.0 ?G))) (= ?Y3 (not (<= ?G 2.0))) (= ?O3 (not (<= 3.0 ?G))) (= ?L3 (= ?B3 0.0)) (= ?H3 (= ?G 4.0)) (= ?F3 (= ?G 3.0)) (= ?S4 (= ?N2 1.0)) (= ?V2 (not (<= 4.0 ?G))) (= ?D3 (= ?G 2.0)) (= ?A3 (= ?G 1.0)) (= ?F4 (= ?G 0.0)) (= ?R2 (= ?G 4.0)) (= ?P2 (= ?G 3.0)) (= ?H2 (not (<= 3.0 ?G))) (= ?C2 (not (<= 1.0 ?G))) (= ?X1 (not (<= 4.0 ?G))) (= ?M2 (not (<= ?J15 1.0))) (= ?J15 (+ (~ 1.0) ?G)) (= ?S1 (not (<= 2.0 ?G))) (= ?N1 (not (<= 3.0 ?G))) (= ?I1 (= ?G 0.0)) (= ?D1 (not (<= ?D 66.0))) (= ?A1 (and ?I15 ?L5)) (= ?L5 (= ?I 0.0)) (= ?I15 (= ?B 0.0)) (= ?X (not (<= 11.0 ?A))) (>= ?T ?Y14) (<= ?T ?Y14) (>= ?S ?X14) (<= ?S ?X14) (>= ?R ?V14) (<= ?R ?V14) (>= ?Q ?T14) (<= ?Q ?T14) (>= ?P ?S14) (<= ?P ?S14) (>= ?O ?H15) (<= ?O ?H15) (>= ?N ?Q14) (<= ?N ?Q14) (>= ?M ?P14) (<= ?M ?P14) (>= ?L ?O14) (<= ?L ?O14) (>= ?K ?G15) (<= ?K ?G15) (= ?M14 true) $x197045 (or (not ?M14) $x472153 $x211570 $x347214 $x322650 $x288002) $x408136 $x110206 $x310568 $x341439 (or (not ?X13) ?Y13) (or (not ?X13) (and ?N13 ?Y13 ?I1)) (or (not ?U13) ?V13) (or (not ?U13) (and ?L13 ?V13 ?W13)) (or (not ?S13) ?T13) (or (not ?S13) (and ?J13 ?T13 ?I1)) (or (not ?P13) ?Q13) (or (not ?P13) (and ?G13 ?Q13 ?R13)) (or (not ?N13) ?O13) (or (not ?N13) (and ?V12 ?O13 (not ?F10))) (or (not ?L13) ?M13) (or (not ?L13) (and ?V12 ?M13 ?F10)) (or (not ?J13) ?K13) (or (not ?J13) (and ?C12 ?K13 (not ?I13))) (or (not ?G13) ?H13) (or (not ?G13) (and ?C12 ?H13 ?I13)) $x391648 $x236201 $x392203 $x365254 (or (not ?Z11) ?A12) (or (not ?Z11) (and ?J11 ?A12 ?B12)) (or (not ?W11) ?X11) (or (not ?W11) (and ?G11 ?X11 ?Y11)) (or (not ?T11) ?U11) (or (not ?T11) (and ?Y10 ?U11 ?V11)) (or (not ?Q11) ?R11) (or (not ?Q11) (and ?V10 ?R11 ?S11)) (or (not ?O11) ?P11) (or (not ?O11) (and ?T10 ?P11 (not ?I1))) (or (not ?L11) ?M11) (or (not ?L11) (and ?R10 ?M11 (not ?N11))) (or (not ?J11) ?K11) (or (not ?J11) (and ?P10 ?K11 (not ?I1))) (or (not ?G11) ?H11) (or (not ?G11) (and ?N10 ?H11 (not ?I11))) $x213289 $x285844 (or (not ?Y10) ?Z10) (or (not ?Y10) (and ?G10 ?Z10 (not ?I1))) (or (not ?V10) ?W10) (or (not ?V10) (and ?D10 ?W10 (not ?X10))) (or (not ?T10) ?U10) (or (not ?T10) (and ?B10 ?U10 (not ?F10))) (or (not ?R10) ?S10) (or (not ?R10) (and ?B10 ?S10 ?F10)) (or (not ?P10) ?Q10) (or (not ?P10) (and ?Z9 ?Q10 (not ?F10))) (or (not ?N10) ?O10) (or (not ?N10) (and ?Z9 ?O10 ?F10)) (or (not ?L10) ?M10) (or (not ?L10) (and ?X9 ?M10 ?I1)) (or (not ?I10) ?J10) (or (not ?I10) (and ?U9 ?J10 ?K10)) (or (not ?G10) ?H10) (or (not ?G10) (and ?S9 ?H10 (not ?F10))) (or (not ?D10) ?E10) (or (not ?D10) (and ?S9 ?E10 ?F10)) (or (not ?B10) ?C10) (or (not ?B10) (and ?Q9 ?C10 (not ?L5))) (or (not ?Z9) ?A10) (or (not ?Z9) (and ?Q9 ?A10 ?L5)) (or (not ?X9) ?Y9) (or (not ?X9) (and ?C9 ?Y9 (not ?W9))) (or (not ?U9) ?V9) (or (not ?U9) (and ?C9 ?V9 ?W9)) (or (not ?S9) ?T9) (or (not ?S9) (and ?J8 ?T9 (not ?D1))) (or (not ?Q9) ?R9) (or (not ?Q9) (and ?J8 ?R9 ?D1)) (or (not ?N9) ?O9) (or (not ?N9) (and ?S7 ?O9 ?P9)) $x367975 $x422620 $x282902 $x374149 $x177286 (or (not ?S7) $x405629 $x349823 $x187875 $x126510 $x107184) (or (not ?P7) ?Q7) (or (not ?P7) (and ?W6 ?Q7 ?R7)) (or (not ?M7) ?N7) (or (not ?M7) (and ?T6 ?N7 ?O7)) (or (not ?J7) ?K7) (or (not ?J7) (and ?L6 ?K7 (not ?L7))) (or (not ?G7) ?H7) (or (not ?G7) (and ?J6 ?H7 ?I7)) (or (not ?D7) ?E7) (or (not ?D7) (and ?G6 ?E7 ?F7)) (or (not ?B7) ?C7) (or (not ?B7) (and ?E6 ?C7 (not ?I1))) (or (not ?Y6) ?Z6) (or (not ?Y6) (and ?C6 ?Z6 (not ?A7))) (or (not ?W6) ?X6) (or (not ?W6) (and ?A6 ?X6 (not ?I1))) (or (not ?T6) ?U6) (or (not ?T6) (and ?Y5 ?U6 (not ?V6))) $x397795 $x372093 (or (not ?J6) ?K6) (or (not ?J6) (and ?R5 ?K6 (not ?I1))) (or (not ?G6) ?H6) (or (not ?G6) (and ?O5 ?H6 (not ?I6))) (or (not ?E6) ?F6) (or (not ?E6) (and ?M5 ?F6 (not ?Q5))) (or (not ?C6) ?D6) (or (not ?C6) (and ?M5 ?D6 ?Q5)) (or (not ?A6) ?B6) (or (not ?A6) (and ?J5 ?B6 (not ?Q5))) (or (not ?Y5) ?Z5) (or (not ?Y5) (and ?J5 ?Z5 ?Q5)) (or (not ?W5) ?X5) (or (not ?W5) (and ?H5 ?X5 (not ?V5))) (or (not ?T5) ?U5) (or (not ?T5) (and ?H5 ?U5 ?V5)) (or (not ?R5) ?S5) (or (not ?R5) (and ?C5 ?S5 (not ?Q5))) (or (not ?O5) ?P5) (or (not ?O5) (and ?C5 ?P5 ?Q5)) (or (not ?M5) ?N5) (or (not ?M5) (and ?A5 ?N5 (not ?L5))) (or (not ?J5) ?K5) (or (not ?J5) (and ?A5 ?K5 ?L5)) (or (not ?H5) ?I5) (or (not ?H5) (and ?W4 ?I5 (not ?G5))) (or (not ?E5) ?F5) (or (not ?E5) (and ?W4 ?F5 ?G5)) (or (not ?C5) ?D5) (or (not ?C5) (and ?G4 ?D5 (not ?D1))) (or (not ?A5) ?B5) (or (not ?A5) (and ?G4 ?B5 ?D1)) $x183983 $x212630 $x245245 $x439853 $x443626 $x136213 (or (not ?U3) ?V3) (or (not ?U3) (and ?P3 ?V3 (not ?T3))) (or (not ?R3) ?S3) (or (not ?R3) (and ?P3 ?S3 ?T3)) (or (not ?P3) ?Q3) (or (not ?P3) (and ?J3 ?Q3 (not ?O3))) (or (not ?M3) ?N3) (or (not ?M3) (and ?J3 ?N3 ?O3)) (or (not ?J3) ?K3) (or (not ?J3) (and ?Y2 ?K3 ?L3)) $x156212 $x350619 (or (not ?W2) ?X2) (or (not ?W2) (and ?I2 ?X2 (not ?V2))) (or (not ?T2) ?U2) (or (not ?T2) (and ?I2 ?U2 ?V2)) $x379253 $x437157 (or (not ?I2) ?J2) (or (not ?I2) (and ?T1 ?J2 (not ?H2))) (or (not ?F2) ?G2) (or (not ?F2) (and ?T1 ?G2 ?H2)) (or (not ?D2) ?E2) (or (not ?D2) (and ?Q1 ?E2 (not ?C2))) (or (not ?A2) ?B2) (or (not ?A2) (and ?Q1 ?B2 ?C2)) (or (not ?Y1) ?Z1) (or (not ?Y1) (and ?O1 ?Z1 (not ?X1))) (or (not ?V1) ?W1) (or (not ?V1) (and ?O1 ?W1 ?X1)) (or (not ?T1) ?U1) (or (not ?T1) (and ?J1 ?U1 (not ?S1))) (or (not ?Q1) ?R1) (or (not ?Q1) (and ?J1 ?R1 ?S1)) (or (not ?O1) ?P1) (or (not ?O1) (and ?G1 ?P1 (not ?N1))) (or (not ?L1) ?M1) (or (not ?L1) (and ?G1 ?M1 ?N1)) (or (not ?J1) ?K1) (or (not ?J1) (and ?E1 ?K1 (not ?I1))) (or (not ?G1) ?H1) (or (not ?G1) (and ?B1 ?H1 (not ?I1))) (or (not ?E1) ?F1) (or (not ?E1) (and ?Y ?F1 (not ?D1))) (or (not ?B1) ?C1) (or (not ?B1) (and ?Y ?C1 ?D1)) (or (not ?Y) ?Z) (or (not ?Y) (and ?U ?Z (not ?A1))) (or (not ?U) ?W) (or (not ?U) (and ?V ?W ?X)) (= ?G15 (+ 1.0 ?A)))))
(=> $x210096 (|cp-rel-bb.i.i.i| ?K ?L ?M ?N ?O ?P ?Q ?R ?S ?T))))))))))))))))))))))))))))))))))))))))))))))))))))))))))))))))))))))))))))))))))))))))))))))))))))))))))))))))))))))))))))))))))))))))
)
(assert (forall ((?A Real) (?B Real) (?C Real) (?D Real) (?E Real) (?F Real) (?G Real) (?H Real) (?I Real) (?J Real) (?K Bool) (?L Bool) (?M Bool) (?N Bool) (?O Bool) (?P Bool) (?Q Bool) (?R Bool) (?S Bool) (?T Bool) (?U Bool) )(let (($x213519 (= ?U (= ?E 0.0))))
(let (($x395963 (or (not ?K) (and ?L ?M ?N))))
(let (($x350673 (or (not ?K) ?M)))
(let (($x157583 (or (not ?R) (and ?K ?S ?O) (and ?L ?T (not ?N)))))
(let (($x278256 (or (not ?R) (and ?S (not ?T)) (and ?T (not ?S)))))
(let (($x489021 (= ?R true)))
(let (($x288919 (= ?U true)))
(let (($x404131 (= ?N (not (<= 11.0 ?A)))))
(let (($x164357 (= ?Q (= ?B 0.0))))
(let (($x157832 (= ?P (= ?I 0.0))))
(let (($x138881 (= ?O (and ?Q ?P))))
(let (($x474405 (|cp-rel-bb.i.i.i| ?A ?B ?C ?D ?E ?F ?G ?H ?I ?J)))
(=> (and $x474405 $x138881 $x157832 $x164357 $x404131 $x288919 $x489021 $x278256 $x157583 $x350673 $x395963 $x213519) (|cp-rel-__UFO__0| ?A ?B ?C ?D ?E ?F ?G ?H ?I ?J)))))))))))))))
)
(assert (forall ((?A Real) (?B Real) (?C Real) (?D Real) (?E Real) (?F Real) (?G Real) (?H Real) (?I Real) (?J Real) (?K Bool) )(let (($x98999 (|cp-rel-__UFO__0| ?A ?B ?C ?D ?E ?F ?G ?H ?I ?J)))
(=> (and $x98999 (= ?K true)) $x98999)))
)
(assert (forall ((?A Real) (?B Real) (?C Real) (?D Real) (?E Real) (?F Real) (?G Real) (?H Real) (?I Real) (?J Real) (?K Bool) (?L Bool) (?M Bool) (?N Bool) (?O Bool) (?P Bool) (?Q Bool) (?R Bool) (?S Bool) (?T Bool) (?U Bool) )(let (($x213519 (= ?U (= ?E 0.0))))
(let (($x395963 (or (not ?K) (and ?L ?M ?N))))
(let (($x350673 (or (not ?K) ?M)))
(let (($x157583 (or (not ?R) (and ?K ?S ?O) (and ?L ?T (not ?N)))))
(let (($x278256 (or (not ?R) (and ?S (not ?T)) (and ?T (not ?S)))))
(let (($x489021 (= ?R true)))
(let (($x404131 (= ?N (not (<= 11.0 ?A)))))
(let (($x164357 (= ?Q (= ?B 0.0))))
(let (($x157832 (= ?P (= ?I 0.0))))
(let (($x138881 (= ?O (and ?Q ?P))))
(let (($x474405 (|cp-rel-bb.i.i.i| ?A ?B ?C ?D ?E ?F ?G ?H ?I ?J)))
(let (($x135003 (and $x474405 $x138881 $x157832 $x164357 $x404131 (not (= ?U true)) $x489021 $x278256 $x157583 $x350673 $x395963 $x213519)))
(=> $x135003 |cp-rel-bb6.i.i|))))))))))))))
)
(assert (not cp-rel-bb6.i.i))
(check-sat)
